certificates/rado_a7_c124_N18.cnf
c Rad2 upper bound instance: x1 + 7*x2 - x3 = 124, interval [1,18]
p cnf 18 70
1 3 18 0
-1 -3 -18 0
2 4 18 0
-2 -4 -18 0
3 5 18 0
-3 -5 -18 0
4 6 18 0
-4 -6 -18 0
5 7 18 0
-5 -7 -18 0
1 6 17 0
-1 -6 -17 0
6 8 18 0
-6 -8 -18 0
2 7 17 0
-2 -7 -17 0
7 9 18 0
-7 -9 -18 0
3 8 17 0
-3 -8 -17 0
8 10 18 0
-8 -10 -18 0
4 9 17 0
-4 -9 -17 0
9 11 18 0
-9 -11 -18 0
5 10 17 0
-5 -10 -17 0
10 12 18 0
-10 -12 -18 0
6 11 17 0
-6 -11 -17 0
11 13 18 0
-11 -13 -18 0
7 12 17 0
-7 -12 -17 0
12 14 18 0
-12 -14 -18 0
1 13 16 0
-1 -13 -16 0
8 13 17 0
-8 -13 -17 0
13 15 18 0
-13 -15 -18 0
2 14 16 0
-2 -14 -16 0
9 14 17 0
-9 -14 -17 0
14 16 18 0
-14 -16 -18 0
3 15 16 0
-3 -15 -16 0
10 15 17 0
-10 -15 -17 0
15 17 18 0
-15 -17 -18 0
4 16 0
-4 -16 0
11 16 17 0
-11 -16 -17 0
16 18 0
-16 -18 0
5 16 17 0
-5 -16 -17 0
12 17 0
-12 -17 0
6 16 18 0
-6 -16 -18 0
13 17 18 0
-13 -17 -18 0
