certificates/rado_a7_c124_N18.drat
-18 0
16 0
-4 0
2 0
6 0
-14 0
12 0
-17 0
15 0
13 0
9 0
-3 0
-1 0
0
